Data path: /scratch/opt/lxu/CFLG/benchmarks/random_B
Instance: r_30_0.3_131.txt
Result path: /scratch/opt/lxu/CFLG/results/random_B
Solver: Gurobi
Time limit: 3600
Formulation: LEFP
Cover: Large
julia --project=. src/main.jl /scratch/opt/lxu/CFLG/benchmarks/random_B r_30_0.3_131.txt /scratch/opt/lxu/CFLG/results/random_B Gurobi 3600 LEFP Large
The latest version of Julia in the `release` channel is 1.11.5+0.x64.linux.gnu. You currently have `1.11.4+0.x64.linux.gnu` installed. Run:

  juliaup update

in your terminal shell to install Julia 1.11.5+0.x64.linux.gnu and update the `release` channel to that version.
/scratch/opt/lxu/CFLG/benchmarks/random_B Gurobi 3600.0 /scratch/opt/lxu/CFLG/results/random_B r_30_0.3_131.txt LEFP Large
/scratch/opt/lxu/CFLG/benchmarks/random_B/r_30_0.3_131.txt

 read graph
data loaded

problem_graph/original graph: node: 30/30 edge: 131/131 dlt: 1.2087766436331486 break_avg_len: 0.6043883218165743 break_max_len: 0.996803218117645Set parameter TokenServer to value "solice01.zib.de"
Set parameter Threads to value 1
Set parameter OutputFlag to value 1
Gurobi Optimizer version 12.0.1 build v12.0.1rc0 (linux64 - "Debian GNU/Linux 12 (bookworm)")

CPU model: Intel(R) Xeon(R) Gold 5122 CPU @ 3.60GHz, instruction set [SSE2|AVX|AVX2|AVX512]
Thread count: 8 physical cores, 16 logical processors, using up to 1 threads

Non-default parameters:
Threads  1

Optimize a model with 161 rows, 393 columns and 655 nonzeros
Model fingerprint: 0xc1992c8f
Coefficient statistics:
  Matrix range     [1e+00, 1e+00]
  Objective range  [1e+00, 1e+00]
  Bounds range     [1e+00, 1e+00]
  RHS range        [0e+00, 0e+00]
Presolve removed 161 rows and 393 columns
Presolve time: 0.00s
Presolve: All rows and columns removed
Iteration    Objective       Primal Inf.    Dual Inf.      Time
       0   -0.0000000e+00   0.000000e+00   0.000000e+00      0s

Solved in 0 iterations and 0.01 seconds (0.00 work units)
Optimal objective -0.000000000e+00

User-callback calls 35, time in user-callback 0.01 sec
elapsed CPU time: 0.95501 seconds
Set parameter TokenServer to value "solice01.zib.de"
Set parameter Threads to value 1
Set parameter OutputFlag to value 1
Set parameter MIPGap to value 0.0001
Set parameter MIPGapAbs to value 1
Set parameter TimeLimit to value 3599.04499

 more cuts:falsefalse
0 0
formulation:LEFP0 131 30

 model loaded

Gurobi Optimizer version 12.0.1 build v12.0.1rc0 (linux64 - "Debian GNU/Linux 12 (bookworm)")

CPU model: Intel(R) Xeon(R) Gold 5122 CPU @ 3.60GHz, instruction set [SSE2|AVX|AVX2|AVX512]
Thread count: 8 physical cores, 16 logical processors, using up to 1 threads

Non-default parameters:
TimeLimit  3599.04499
MIPGapAbs  1
Threads  1

Optimize a model with 15954 rows, 7698 columns and 47581 nonzeros
Model fingerprint: 0x3e96d703
Variable types: 292 continuous, 7406 integer (7406 binary)
Coefficient statistics:
  Matrix range     [1e-06, 2e+00]
  Objective range  [1e+00, 1e+00]
  Bounds range     [3e-01, 1e+00]
  RHS range        [3e-01, 1e+01]
Found heuristic solution: objective 23.0000000
Presolve removed 3496 rows and 180 columns
Presolve time: 0.15s
Presolved: 12458 rows, 7518 columns, 43688 nonzeros
Variable types: 161 continuous, 7357 integer (7357 binary)

Root relaxation: objective 4.699435e-01, 4733 iterations, 0.29 seconds (0.61 work units)

    Nodes    |    Current Node    |     Objective Bounds      |     Work
 Expl Unexpl |  Obj  Depth IntInf | Incumbent    BestBd   Gap | It/Node Time

     0     0    0.46994    0  461   23.00000    0.46994  98.0%     -    0s
H    0     0                      15.0000000    0.46994  96.9%     -    0s
H    0     0                       5.0000000    0.46994  90.6%     -    0s
H    0     0                       4.0000000    0.46994  88.3%     -    0s
     0     0    0.79654    0  411    4.00000    0.79654  80.1%     -    2s
H    0     0                       3.0000000    0.81076  73.0%     -    2s
     0     0    0.86028    0  430    3.00000    0.86028  71.3%     -    3s
     0     0    1.00000    0  626    3.00000    1.00000  66.7%     -    4s
     0     0    1.00000    0  624    3.00000    1.00000  66.7%     -    4s
     0     0    1.00000    0  291    3.00000    1.00000  66.7%     -    4s
     0     0    1.00000    0  266    3.00000    1.00000  66.7%     -    4s
     0     0    1.00000    0   96    3.00000    1.00000  66.7%     -    5s
     0     0    1.00000    0  355    3.00000    1.00000  66.7%     -    5s
     0     0    1.00000    0  163    3.00000    1.00000  66.7%     -    7s
     0     0    1.00000    0  267    3.00000    1.00000  66.7%     -    7s
     0     0    1.00000    0  296    3.00000    1.00000  66.7%     -    9s
     0     0    1.00000    0  586    3.00000    1.00000  66.7%     -    9s
     0     0    1.00000    0  432    3.00000    1.00000  66.7%     -   10s
     0     0    1.00000    0  143    3.00000    1.00000  66.7%     -   10s
     0     2    1.00000    0   97    3.00000    1.00000  66.7%     -   12s
    78    76    1.51351   70  118    3.00000    1.00000  66.7%   359   15s
   158   126    1.46665   20   92    3.00000    1.00000  66.7%   242   21s
   307   222    1.50807   18  126    3.00000    1.00000  66.7%   193   25s
   657   433    1.60757   39  143    3.00000    1.00000  66.7%   152   40s
   660   435    2.00000   55  341    3.00000    1.00000  66.7%   151   46s
   663   437    2.00000   23  565    3.00000    1.00000  66.7%   150   50s
   667   440    2.00000   22  790    3.00000    1.00000  66.7%   150   56s
   670   442    2.00000   14   54    3.00000    2.00000  33.3%   149   62s
   672   443    2.00000   28   86    3.00000    2.00000  33.3%   148   66s
   676   446    2.00000   24   72    3.00000    2.00000  33.3%   148   71s
   682   450    2.00000   41   45    3.00000    2.00000  33.3%   146   75s
   688   455    2.00000   35  310    3.00000    2.00000  33.3%   343   81s
   691   457    2.00000   19  668    3.00000    2.00000  33.3%   342   85s
   694   459    2.00000   70  719    3.00000    2.00000  33.3%   340   90s
   697   461    2.00000   36  128    3.00000    2.00000  33.3%   339   95s
   701   464    2.00000   18  218    3.00000    2.00000  33.3%   337  100s
   704   466    2.00000   26   88    3.00000    2.00000  33.3%   336  106s
   708   468    2.00000   33   68    3.00000    2.00000  33.3%   334  112s
   711   470    2.00000   14   55    3.00000    2.00000  33.3%   332  115s
   740   475     cutoff   33         3.00000    2.00000  33.3%   568  120s
   792   461    2.00000   32   89    3.00000    2.00000  33.3%   562  125s
   828   456    2.00000   50   91    3.00000    2.00000  33.3%   572  130s
   871   439    2.00000   42  108    3.00000    2.00000  33.3%   567  138s
   881   431    2.00000   24  168    3.00000    2.00000  33.3%   567  140s
   922   429    2.00000   51  131    3.00000    2.00000  33.3%   574  145s
   958   422    2.00000   36  108    3.00000    2.00000  33.3%   581  150s
   994   400    2.00000   54  119    3.00000    2.00000  33.3%   584  155s
  1024   384    2.00000   29  121    3.00000    2.00000  33.3%   592  160s
  1046   373    2.00000   33  136    3.00000    2.00000  33.3%   602  169s
  1060   365    2.00000   24  240    3.00000    2.00000  33.3%   604  170s
  1100   364    2.00000   62  111    3.00000    2.00000  33.3%   596  175s
  1127   374    2.00000   46  123    3.00000    2.00000  33.3%   597  180s
  1166   328    2.00000   27   91    3.00000    2.00000  33.3%   627  186s
  1194   338    2.00000   51  109    3.00000    2.00000  33.3%   630  190s
  1259   354    2.00000   28  176    3.00000    2.00000  33.3%   623  195s
  1305   356    2.00000   69  166    3.00000    2.00000  33.3%   623  200s
  1344   335    2.00000   43  120    3.00000    2.00000  33.3%   637  205s
  1411   303     cutoff   37         3.00000    2.00000  33.3%   651  210s
  1456   290    2.00000   75   84    3.00000    2.00000  33.3%   653  215s
  1520   230    2.00000   30  120    3.00000    2.00000  33.3%   653  220s
  1582   242    2.00000   74   55    3.00000    2.00000  33.3%   634  225s
  1663   251    2.00000   30   57    3.00000    2.00000  33.3%   616  230s
  1721   275    2.00000   82   31    3.00000    2.00000  33.3%   604  235s
  1770   269    2.00000  103  127    3.00000    2.00000  33.3%   594  244s
  1771   270    2.00000  104  123    3.00000    2.00000  33.3%   594  245s
  1835   251    2.00000  117   99    3.00000    2.00000  33.3%   583  250s
  1895   239    2.00000   47  299    3.00000    2.00000  33.3%   583  255s
  1920   242    2.00000   63  152    3.00000    2.00000  33.3%   588  260s
  1994   258    2.00000  124  160    3.00000    2.00000  33.3%   579  265s
  2043   225    2.00000  106  162    3.00000    2.00000  33.3%   573  270s
  2146   191    2.00000   91  145    3.00000    2.00000  33.3%   558  276s
  2204   206    2.00000   44  116    3.00000    2.00000  33.3%   551  280s
  2278   241    2.00000   73  163    3.00000    2.00000  33.3%   539  285s
  2361   244    2.00000  113  181    3.00000    2.00000  33.3%   531  290s
  2417   213    2.00000   82  110    3.00000    2.00000  33.3%   531  295s
  2455   204    2.00000   53  100    3.00000    2.00000  33.3%   534  300s
  2514   200    2.00000   45   54    3.00000    2.00000  33.3%   534  305s
  2578   216     cutoff   52         3.00000    2.00000  33.3%   529  310s
  2662   223     cutoff   94         3.00000    2.00000  33.3%   530  315s
  2759   261    2.00000  132  101    3.00000    2.00000  33.3%   519  320s
  2888   217    2.00000   67  111    3.00000    2.00000  33.3%   508  325s
  2982   178    2.00000   31  220    3.00000    2.00000  33.3%   508  331s
  2994   190    2.00000   43   95    3.00000    2.00000  33.3%   509  335s
  3009   193    2.00000   54  110    3.00000    2.00000  33.3%   509  340s
  3041   214    2.00000   84  166    3.00000    2.00000  33.3%   508  357s
  3076   220    2.00000   30  122    3.00000    2.00000  33.3%   509  361s
  3104   222    2.00000   46  107    3.00000    2.00000  33.3%   510  366s
  3133   238    2.00000   50   45    3.00000    2.00000  33.3%   513  370s
  3218   282    2.00000   88  125    3.00000    2.00000  33.3%   502  375s
  3332   330    2.00000   78  112    3.00000    2.00000  33.3%   494  380s
  3407   337     cutoff   38         3.00000    2.00000  33.3%   489  385s
  3446   325     cutoff   46         3.00000    2.00000  33.3%   493  390s
  3500   324     cutoff   83         3.00000    2.00000  33.3%   497  395s
  3550   311    2.00000   61  119    3.00000    2.00000  33.3%   500  400s
  3611   338    2.00000  120  119    3.00000    2.00000  33.3%   499  405s
  3686   320    2.00000   87  121    3.00000    2.00000  33.3%   498  410s
  3767   307     cutoff   60         3.00000    2.00000  33.3%   497  415s
  3859   339     cutoff   96         3.00000    2.00000  33.3%   491  420s
  3949   330    2.00000   98  136    3.00000    2.00000  33.3%   490  425s
  4012   296     cutoff   91         3.00000    2.00000  33.3%   490  430s
  4047   294    2.00000   70  125    3.00000    2.00000  33.3%   493  435s
  4101   287     cutoff   39         3.00000    2.00000  33.3%   496  440s
  4212   315     cutoff   39         3.00000    2.00000  33.3%   487  445s
  4307   289     cutoff  112         3.00000    2.00000  33.3%   487  450s
  4325   295     cutoff   51         3.00000    2.00000  33.3%   491  455s
  4380   292    2.00000   49  215    3.00000    2.00000  33.3%   493  461s
  4422   269     cutoff   70         3.00000    2.00000  33.3%   497  465s
  4467   258    2.00000  121  164    3.00000    2.00000  33.3%   500  470s
  4558   245    2.00000   46  276    3.00000    2.00000  33.3%   496  475s
  4616   233     cutoff   38         3.00000    2.00000  33.3%   498  480s
  4645   219    2.00000   40   99    3.00000    2.00000  33.3%   501  485s
  4692   230    2.00000   42  198    3.00000    2.00000  33.3%   501  490s
  4721   252    2.00000   69  152    3.00000    2.00000  33.3%   503  495s
  4797   253     cutoff   73         3.00000    2.00000  33.3%   502  500s
  4853   279    2.00000   80  146    3.00000    2.00000  33.3%   501  505s
  4924   263     cutoff   94         3.00000    2.00000  33.3%   503  510s
  4977   252    2.00000   63  101    3.00000    2.00000  33.3%   504  515s
  5037   285    2.00000   49  126    3.00000    2.00000  33.3%   502  520s
  5076   314    2.00000   61  243    3.00000    2.00000  33.3%   502  525s
  5101   323    2.00000   81  118    3.00000    2.00000  33.3%   503  534s
  5130   340    2.00000  106   84    3.00000    2.00000  33.3%   501  535s
  5203   296     cutoff   77         3.00000    2.00000  33.3%   504  540s
  5242   306    2.00000   66  119    3.00000    2.00000  33.3%   503  545s
  5320   346    2.00000   84   66    3.00000    2.00000  33.3%   503  550s
  5352   353    2.00000   75   64    3.00000    2.00000  33.3%   504  569s
  5357   356    2.00000   80   60    3.00000    2.00000  33.3%   503  571s
  5410   382    2.00000   97  114    3.00000    2.00000  33.3%   501  575s
  5556   361     cutoff   77         3.00000    2.00000  33.3%   496  580s
  5628   357     cutoff   78         3.00000    2.00000  33.3%   496  585s
  5766   392    2.00000   91   62    3.00000    2.00000  33.3%   490  590s
  5850   380    2.00000   84   87    3.00000    2.00000  33.3%   488  595s
  5927   383    2.00000   90   79    3.00000    2.00000  33.3%   487  600s
  5992   374    2.00000   78   75    3.00000    2.00000  33.3%   488  605s
  6102   352     cutoff   63         3.00000    2.00000  33.3%   486  610s
  6129   350    2.00000   71  144    3.00000    2.00000  33.3%   488  615s
  6211   383    2.00000   62   92    3.00000    2.00000  33.3%   485  620s
  6297   371    2.00000   63  151    3.00000    2.00000  33.3%   485  625s
  6366   387    2.00000   70   67    3.00000    2.00000  33.3%   485  630s
  6468   388    2.00000   64  383    3.00000    2.00000  33.3%   482  635s
  6495   401    2.00000   91  114    3.00000    2.00000  33.3%   483  640s
  6587   445    2.00000   87  115    3.00000    2.00000  33.3%   481  645s
  6672   418    2.00000   65  117    3.00000    2.00000  33.3%   481  650s
  6745   457    2.00000   69  156    3.00000    2.00000  33.3%   480  655s
  6808   443     cutoff   91         3.00000    2.00000  33.3%   481  660s
  6866   440    2.00000   88   70    3.00000    2.00000  33.3%   483  665s
  6899   461    2.00000  120  119    3.00000    2.00000  33.3%   481  670s
  6985   487    2.00000   93  149    3.00000    2.00000  33.3%   480  675s
  7055   528    2.00000  113  108    3.00000    2.00000  33.3%   478  680s
  7145   468    2.00000   67  166    3.00000    2.00000  33.3%   479  685s
  7187   459    2.00000   64  222    3.00000    2.00000  33.3%   480  690s
  7267   483    2.00000   70   71    3.00000    2.00000  33.3%   479  695s
  7355   452    2.00000   54  129    3.00000    2.00000  33.3%   480  700s
  7421   482    2.00000   81  157    3.00000    2.00000  33.3%   479  705s
  7486   500    2.00000   59   88    3.00000    2.00000  33.3%   478  710s
  7572   459    2.00000   60  113    3.00000    2.00000  33.3%   480  715s
  7620   486    2.00000   98  172    3.00000    2.00000  33.3%   479  720s
  7684   489     cutoff   53         3.00000    2.00000  33.3%   480  725s
  7723   473    2.00000   49  166    3.00000    2.00000  33.3%   482  730s
  7794   497     cutoff   50         3.00000    2.00000  33.3%   482  735s
  7835   497    2.00000   67   93    3.00000    2.00000  33.3%   483  740s
  7897   523    2.00000   70  101    3.00000    2.00000  33.3%   481  745s
  7942   517     cutoff   55         3.00000    2.00000  33.3%   483  750s
  7999   492    2.00000   30   79    3.00000    2.00000  33.3%   486  755s
  8032   496    2.00000   54  147    3.00000    2.00000  33.3%   487  760s
  8117   495     cutoff   92         3.00000    2.00000  33.3%   488  765s
  8156   510    2.00000   57  139    3.00000    2.00000  33.3%   488  770s
  8204   480    2.00000   40   84    3.00000    2.00000  33.3%   491  775s
  8267   482    2.00000   49  158    3.00000    2.00000  33.3%   490  780s
  8363   473    2.00000   36  244    3.00000    2.00000  33.3%   489  786s
  8389   490    2.00000   59  131    3.00000    2.00000  33.3%   489  816s
  8428   508    2.00000   37  160    3.00000    2.00000  33.3%   488  820s
  8531   426    2.00000   74   33    3.00000    2.00000  33.3%   489  826s
  8602   412    2.00000   67  175    3.00000    2.00000  33.3%   488  830s
  8632   422    2.00000   91  107    3.00000    2.00000  33.3%   488  835s
  8749   450     cutoff   69         3.00000    2.00000  33.3%   486  840s
  8844   424    2.00000   65  225    3.00000    2.00000  33.3%   486  845s
  8929   368     cutoff  104         3.00000    2.00000  33.3%   487  850s
  8981   377    2.00000   92  115    3.00000    2.00000  33.3%   487  855s
  9096   384    2.00000  100   78    3.00000    2.00000  33.3%   485  860s
  9232   322     cutoff   91         3.00000    2.00000  33.3%   484  865s
  9317   311    2.00000  110   98    3.00000    2.00000  33.3%   484  870s
  9392   239    2.00000   54  209    3.00000    2.00000  33.3%   485  875s
  9447   228     cutoff   77         3.00000    2.00000  33.3%   487  880s
  9613    78     cutoff   50         3.00000    2.00000  33.3%   486  885s

Cutting planes:
  Learned: 1
  Gomory: 1
  Cover: 83
  Implied bound: 11
  Projected implied bound: 46
  Clique: 4
  MIR: 34
  Mixing: 3
  StrongCG: 16
  Flow cover: 87
  GUB cover: 48
  Zero half: 1
  RLT: 3
  Relax-and-lift: 27
  BQP: 1

Explored 9614 nodes (4764244 simplex iterations) in 885.04 seconds (1279.82 work units)
Thread count was 1 (of 16 available processors)

Solution count 8: 3 3 3 ... 23

Optimal solution found (tolerance 1.00e-04)
Best objective 3.000000000000e+00, best bound 2.000000000000e+00, gap 33.3333%

User-callback calls 224143, time in user-callback 0.16 sec

 sepatime0
3.0Stat(MathOptInterface.OPTIMAL, 3.0, 2.0000000000000004, 0.3333333333333332, 0.0, 0.95501, 885.037780046463, 9614, Main.CFLG.LEFP, "", #undef)
